\ LP format - for model browsing. Use MPS format to capture full model detail.
Maximize
  n[0] + 0.6 n[1]
Subject To
 R0: 0.1 n[0] + 0.1 n[1] <= 150
 R1: 0.6 n[0] + 0.3 n[1] <= 100
 R2: 0.4 n[0] + 0.2 n[1] <= 30
Bounds
End
